39384553327891468555015,5,1,2,06,8,1,2,015,5,1,2,012,14,1,2,011,8,1,2,07,8,1,2,03,9,1,2,012,3,1,2,015,14,1,2,03,14,1,2,014,9,1,2,01,9,1,2,01,13,1,2,011,11,1,2,06,8,1,2,014,14,1,2,03,3,1,2,012,5,1,2,012,8,1,2,05,2,1,2,02,2,1,2,06,9,1,2,011,10,1,2,013,8,1,2,05,6,1,2,09,10,1,2,013,7,1,2,010,11,1,2,01,15,1,2,04,7,1,2,08,2,1,2,02,12,1,2,014,15,1,2,012,3,1,2,06,11,1,2,06,10,1,2,015,13,1,2,01,13,1,2,07,13,1,2,013,1,1,2,08,3,1,2,03,6,1,2,05,7,1,2,04,10,1,2,013,1,1,2,01,6,1,2,06,13,1,2,012,1,1,2,02,12,1,2,04,11,1,2,0